milp_2char/collision/skinny_r4.sol
# Objective value = 2
sbox[0,0,0] 0
sbox[0,0,1] 0
sbox[0,0,2] 0
sbox[0,0,3] 0
sbox[0,0,4] 0
sbox[0,1,0] 0
sbox[0,1,1] 0
sbox[0,1,2] 0
sbox[0,1,3] 0
sbox[0,1,4] 0
sbox[0,2,0] 0
sbox[0,2,1] 0
sbox[0,2,2] 0
sbox[0,2,3] 0
sbox[0,2,4] 0
sbox[0,3,0] 0
sbox[0,3,1] 0
sbox[0,3,2] 0
sbox[0,3,3] 0
sbox[0,3,4] 0
sbox[1,0,0] 0
sbox[1,0,1] 0
sbox[1,0,2] 0
sbox[1,0,3] 0
sbox[1,0,4] 0
sbox[1,1,0] 0
sbox[1,1,1] 0
sbox[1,1,2] 0
sbox[1,1,3] 0
sbox[1,1,4] 0
sbox[1,2,0] 0
sbox[1,2,1] 0
sbox[1,2,2] 0
sbox[1,2,3] 1
sbox[1,2,4] 0
sbox[1,3,0] 0
sbox[1,3,1] 0
sbox[1,3,2] 0
sbox[1,3,3] 0
sbox[1,3,4] 0
sbox[2,0,0] 0
sbox[2,0,1] 0
sbox[2,0,2] 1
sbox[2,0,3] 0
sbox[2,0,4] 0
sbox[2,1,0] 0
sbox[2,1,1] 0
sbox[2,1,2] 0
sbox[2,1,3] 0
sbox[2,1,4] 0
sbox[2,2,0] 0
sbox[2,2,1] 0
sbox[2,2,2] 0
sbox[2,2,3] 0
sbox[2,2,4] 0
sbox[2,3,0] 0
sbox[2,3,1] 0
sbox[2,3,2] 0
sbox[2,3,3] 0
sbox[2,3,4] 0
sbox[3,0,0] 0
sbox[3,0,1] 0
sbox[3,0,2] 0
sbox[3,0,3] 0
sbox[3,0,4] 0
sbox[3,1,0] 0
sbox[3,1,1] 0
sbox[3,1,2] 0
sbox[3,1,3] 0
sbox[3,1,4] 0
sbox[3,2,0] 0
sbox[3,2,1] 0
sbox[3,2,2] 0
sbox[3,2,3] 0
sbox[3,2,4] 0
sbox[3,3,0] 0
sbox[3,3,1] 0
sbox[3,3,2] 0
sbox[3,3,3] 0
sbox[3,3,4] 0
rkey[0,0,0] 0
rkey[0,0,1] 0
rkey[0,0,2] 0
rkey[0,0,3] 0
rkey[0,0,4] 0
rkey[0,1,0] 0
rkey[0,1,1] 0
rkey[0,1,2] 0
rkey[0,1,3] 0
rkey[0,1,4] 0
rkey[0,2,0] 0
rkey[0,2,1] 0
rkey[0,2,2] 1
rkey[0,2,3] 0
rkey[0,2,4] 0
rkey[0,3,0] 0
rkey[0,3,1] 0
rkey[0,3,2] 0
rkey[0,3,3] 0
rkey[0,3,4] 0
rkey[1,0,0] 0
rkey[1,0,1] 0
rkey[1,0,2] 0
rkey[1,0,3] 0
rkey[1,0,4] 0
rkey[1,1,0] 0
rkey[1,1,1] 0
rkey[1,1,2] 1
rkey[1,1,3] 0
rkey[1,1,4] 0
rkey[1,2,0] 0
rkey[1,2,1] 0
rkey[1,2,2] 0
rkey[1,2,3] 0
rkey[1,2,4] 0
rkey[1,3,0] 0
rkey[1,3,1] 1
rkey[1,3,2] 0
rkey[1,3,3] 0
rkey[1,3,4] 0
rkey[2,0,0] 0
rkey[2,0,1] 0
rkey[2,0,2] 1
rkey[2,0,3] 0
rkey[2,0,4] 0
rkey[2,1,0] 0
rkey[2,1,1] 0
rkey[2,1,2] 0
rkey[2,1,3] 0
rkey[2,1,4] 0
rkey[2,2,0] 0
rkey[2,2,1] 0
rkey[2,2,2] 0
rkey[2,2,3] 0
rkey[2,2,4] 0
rkey[2,3,0] 0
rkey[2,3,1] 0
rkey[2,3,2] 0
rkey[2,3,3] 0
rkey[2,3,4] 0
rkey[3,0,0] 0
rkey[3,0,1] 0
rkey[3,0,2] 0
rkey[3,0,3] 0
rkey[3,0,4] 0
rkey[3,1,0] 0
rkey[3,1,1] 0
rkey[3,1,2] 0
rkey[3,1,3] 0
rkey[3,1,4] 0
rkey[3,2,0] 0
rkey[3,2,1] 0
rkey[3,2,2] 0
rkey[3,2,3] 0
rkey[3,2,4] 0
rkey[3,3,0] 0
rkey[3,3,1] 0
rkey[3,3,2] 0
rkey[3,3,3] 0
rkey[3,3,4] 0
tkey[0,0,0] 0
tkey[0,0,1] 0
tkey[0,0,2] 0
tkey[0,0,3] 0
tkey[0,0,4] 0
tkey[0,1,0] 0
tkey[0,1,1] 0
tkey[0,1,2] 0
tkey[0,1,3] 0
tkey[0,1,4] 0
tkey[0,2,0] 0
tkey[0,2,1] 0
tkey[0,2,2] 1
tkey[0,2,3] 0
tkey[0,2,4] 0
tkey[0,3,0] 0
tkey[0,3,1] 0
tkey[0,3,2] 0
tkey[0,3,3] 0
tkey[0,3,4] 0
tkey[1,0,0] 0
tkey[1,0,1] 0
tkey[1,0,2] 0
tkey[1,0,3] 0
tkey[1,0,4] 0
tkey[1,1,0] 0
tkey[1,1,1] 0
tkey[1,1,2] 1
tkey[1,1,3] 0
tkey[1,1,4] 0
tkey[1,2,0] 0
tkey[1,2,1] 0
tkey[1,2,2] 0
tkey[1,2,3] 1
tkey[1,2,4] 0
tkey[1,3,0] 0
tkey[1,3,1] 1
tkey[1,3,2] 0
tkey[1,3,3] 0
tkey[1,3,4] 0
tkey[2,0,0] 0
tkey[2,0,1] 1
tkey[2,0,2] 0
tkey[2,0,3] 0
tkey[2,0,4] 0
tkey[2,1,0] 0
tkey[2,1,1] 0
tkey[2,1,2] 0
tkey[2,1,3] 0
tkey[2,1,4] 0
tkey[2,2,0] 1
tkey[2,2,1] 0
tkey[2,2,2] 0
tkey[2,2,3] 1
tkey[2,2,4] 0
tkey[2,3,0] 1
tkey[2,3,1] 0
tkey[2,3,2] 0
tkey[2,3,3] 0
tkey[2,3,4] 0
tkey[3,0,0] 0
tkey[3,0,1] 0
tkey[3,0,2] 1
tkey[3,0,3] 0
tkey[3,0,4] 0
tkey[3,1,0] 0
tkey[3,1,1] 0
tkey[3,1,2] 0
tkey[3,1,3] 1
tkey[3,1,4] 0
tkey[3,2,0] 0
tkey[3,2,1] 1
tkey[3,2,2] 0
tkey[3,2,3] 0
tkey[3,2,4] 0
tkey[3,3,0] 0
tkey[3,3,1] 0
tkey[3,3,2] 1
tkey[3,3,3] 0
tkey[3,3,4] 0
tbox[0,0,0] 1
tbox[0,0,1] 1
tbox[0,0,2] 1
tbox[0,0,3] 1
tbox[0,0,4] 1
tbox[0,1,0] 0
tbox[0,1,1] 0
tbox[0,1,2] 0
tbox[0,1,3] 0
tbox[0,1,4] 1
tbox[0,2,0] 0
tbox[0,2,1] 0
tbox[0,2,2] 0
tbox[0,2,3] 0
tbox[0,2,4] 0
tbox[0,3,0] 0
tbox[0,3,1] 0
tbox[0,3,2] 1
tbox[0,3,3] 1
tbox[0,3,4] 1
tbox[1,0,0] 0
tbox[1,0,1] 1
tbox[1,0,2] 1
tbox[1,0,3] 1
tbox[1,0,4] 1
tbox[1,1,0] 0
tbox[1,1,1] 0
tbox[1,1,2] 0
tbox[1,1,3] 0
tbox[1,1,4] 0
tbox[1,2,0] 0
tbox[1,2,1] 0
tbox[1,2,2] 0
tbox[1,2,3] 0
tbox[1,2,4] 0
tbox[1,3,0] 0
tbox[1,3,1] 0
tbox[1,3,2] 0
tbox[1,3,3] 1
tbox[1,3,4] 1
tbox[2,0,0] 0
tbox[2,0,1] 0
tbox[2,0,2] 0
tbox[2,0,3] 0
tbox[2,0,4] 1
tbox[2,1,0] 0
tbox[2,1,1] 0
tbox[2,1,2] 1
tbox[2,1,3] 1
tbox[2,1,4] 0
tbox[2,2,0] 0
tbox[2,2,1] 0
tbox[2,2,2] 0
tbox[2,2,3] 0
tbox[2,2,4] 0
tbox[2,3,0] 0
tbox[2,3,1] 0
tbox[2,3,2] 0
tbox[2,3,3] 1
tbox[2,3,4] 1
tbox[3,0,0] 0
tbox[3,0,1] 1
tbox[3,0,2] 1
tbox[3,0,3] 1
tbox[3,0,4] 1
tbox[3,1,0] 0
tbox[3,1,1] 0
tbox[3,1,2] 0
tbox[3,1,3] 0
tbox[3,1,4] 1
tbox[3,2,0] 0
tbox[3,2,1] 0
tbox[3,2,2] 0
tbox[3,2,3] 0
tbox[3,2,4] 0
tbox[3,3,0] 0
tbox[3,3,1] 0
tbox[3,3,2] 0
tbox[3,3,3] 0
tbox[3,3,4] 1
unkn[0,0,0] 1
unkn[0,0,1] 1
unkn[0,0,2] 1
unkn[0,0,3] 1
unkn[0,0,4] 1
unkn[0,1,0] 0
unkn[0,1,1] 0
unkn[0,1,2] 0
unkn[0,1,3] 0
unkn[0,1,4] 1
unkn[0,2,0] 0
unkn[0,2,1] 0
unkn[0,2,2] 0
unkn[0,2,3] 0
unkn[0,2,4] 1
unkn[0,3,0] 0
unkn[0,3,1] 0
unkn[0,3,2] 1
unkn[0,3,3] 1
unkn[0,3,4] 1
unkn[1,0,0] 0
unkn[1,0,1] 1
unkn[1,0,2] 1
unkn[1,0,3] 1
unkn[1,0,4] 1
unkn[1,1,0] 0
unkn[1,1,1] 0
unkn[1,1,2] 0
unkn[1,1,3] 0
unkn[1,1,4] 1
unkn[1,2,0] 0
unkn[1,2,1] 0
unkn[1,2,2] 0
unkn[1,2,3] 0
unkn[1,2,4] 1
unkn[1,3,0] 0
unkn[1,3,1] 0
unkn[1,3,2] 0
unkn[1,3,3] 1
unkn[1,3,4] 1
unkn[2,0,0] 0
unkn[2,0,1] 0
unkn[2,0,2] 0
unkn[2,0,3] 0
unkn[2,0,4] 1
unkn[2,1,0] 0
unkn[2,1,1] 0
unkn[2,1,2] 1
unkn[2,1,3] 1
unkn[2,1,4] 1
unkn[2,2,0] 0
unkn[2,2,1] 0
unkn[2,2,2] 0
unkn[2,2,3] 0
unkn[2,2,4] 0
unkn[2,3,0] 0
unkn[2,3,1] 0
unkn[2,3,2] 0
unkn[2,3,3] 1
unkn[2,3,4] 1
unkn[3,0,0] 0
unkn[3,0,1] 1
unkn[3,0,2] 1
unkn[3,0,3] 1
unkn[3,0,4] 1
unkn[3,1,0] 0
unkn[3,1,1] 0
unkn[3,1,2] 0
unkn[3,1,3] 0
unkn[3,1,4] 1
unkn[3,2,0] 0
unkn[3,2,1] 0
unkn[3,2,2] 0
unkn[3,2,3] 0
unkn[3,2,4] 0
unkn[3,3,0] 0
unkn[3,3,1] 0
unkn[3,3,2] 0
unkn[3,3,3] 1
unkn[3,3,4] 1
forg[0,0,0] 1
forg[0,0,1] 0
forg[0,0,2] 0
forg[0,0,3] 0
forg[0,0,4] 0
forg[0,1,0] 0
forg[0,1,1] 0
forg[0,1,2] 0
forg[0,1,3] 0
forg[0,1,4] 0
forg[0,2,0] 0
forg[0,2,1] 0
forg[0,2,2] 0
forg[0,2,3] 0
forg[0,2,4] 0
forg[0,3,0] 0
forg[0,3,1] 0
forg[0,3,2] 0
forg[0,3,3] 0
forg[0,3,4] 0
forg[1,0,0] 0
forg[1,0,1] 0
forg[1,0,2] 0
forg[1,0,3] 0
forg[1,0,4] 0
forg[1,1,0] 0
forg[1,1,1] 0
forg[1,1,2] 0
forg[1,1,3] 0
forg[1,1,4] 1
forg[1,2,0] 0
forg[1,2,1] 0
forg[1,2,2] 0
forg[1,2,3] 0
forg[1,2,4] 1
forg[1,3,0] 0
forg[1,3,1] 0
forg[1,3,2] 0
forg[1,3,3] 0
forg[1,3,4] 0
forg[2,0,0] 0
forg[2,0,1] 0
forg[2,0,2] 0
forg[2,0,3] 0
forg[2,0,4] 0
forg[2,1,0] 0
forg[2,1,1] 0
forg[2,1,2] 0
forg[2,1,3] 0
forg[2,1,4] 0
forg[2,2,0] 0
forg[2,2,1] 0
forg[2,2,2] 0
forg[2,2,3] 0
forg[2,2,4] 0
forg[2,3,0] 0
forg[2,3,1] 0
forg[2,3,2] 0
forg[2,3,3] 0
forg[2,3,4] 0
forg[3,0,0] 0
forg[3,0,1] 0
forg[3,0,2] 0
forg[3,0,3] 0
forg[3,0,4] 0
forg[3,1,0] 0
forg[3,1,1] 0
forg[3,1,2] 0
forg[3,1,3] 0
forg[3,1,4] 0
forg[3,2,0] 0
forg[3,2,1] 0
forg[3,2,2] 0
forg[3,2,3] 0
forg[3,2,4] 0
forg[3,3,0] 0
forg[3,3,1] 0
forg[3,3,2] 0
forg[3,3,3] 0
forg[3,3,4] 0
cost[0,0,0] 0
cost[0,0,1] 0
cost[0,0,2] 0
cost[0,0,3] 0
cost[0,0,4] 0
cost[0,1,0] 0
cost[0,1,1] 0
cost[0,1,2] 0
cost[0,1,3] 0
cost[0,1,4] 0
cost[0,2,0] 0
cost[0,2,1] 0
cost[0,2,2] 0
cost[0,2,3] 0
cost[0,2,4] 0
cost[0,3,0] 0
cost[0,3,1] 0
cost[0,3,2] 0
cost[0,3,3] 0
cost[0,3,4] 0
cost[1,0,0] 0
cost[1,0,1] 0
cost[1,0,2] 0
cost[1,0,3] 0
cost[1,0,4] 0
cost[1,1,0] 0
cost[1,1,1] 0
cost[1,1,2] 0
cost[1,1,3] 0
cost[1,1,4] 0
cost[1,2,0] 0
cost[1,2,1] 0
cost[1,2,2] 0
cost[1,2,3] 1
cost[1,2,4] 0
cost[1,3,0] 0
cost[1,3,1] 0
cost[1,3,2] 0
cost[1,3,3] 0
cost[1,3,4] 0
cost[2,0,0] 0
cost[2,0,1] 0
cost[2,0,2] 1
cost[2,0,3] 0
cost[2,0,4] 0
cost[2,1,0] 0
cost[2,1,1] 0
cost[2,1,2] 0
cost[2,1,3] 0
cost[2,1,4] 0
cost[2,2,0] 0
cost[2,2,1] 0
cost[2,2,2] 0
cost[2,2,3] 0
cost[2,2,4] 0
cost[2,3,0] 0
cost[2,3,1] 0
cost[2,3,2] 0
cost[2,3,3] 0
cost[2,3,4] 0
cost[3,0,0] 0
cost[3,0,1] 0
cost[3,0,2] 0
cost[3,0,3] 0
cost[3,0,4] 0
cost[3,1,0] 0
cost[3,1,1] 0
cost[3,1,2] 0
cost[3,1,3] 0
cost[3,1,4] 0
cost[3,2,0] 0
cost[3,2,1] 0
cost[3,2,2] 0
cost[3,2,3] 0
cost[3,2,4] 0
cost[3,3,0] 0
cost[3,3,1] 0
cost[3,3,2] 0
cost[3,3,3] 0
cost[3,3,4] 0
lane[0,0] 1
lane[0,1] 0
lane[0,2] 0
lane[0,3] 0
lane[1,0] 0
lane[1,1] 0
lane[1,2] 1
lane[1,3] 0
lane[2,0] 0
lane[2,1] 0
lane[2,2] 1
lane[2,3] 1
lane[3,0] 0
lane[3,1] 0
lane[3,2] 0
lane[3,3] 0
